90
0 39 78 82 79 2 75 64 6 59 
70 35 52 68 19 57 43 34 29 88 
36 38 40 7 4 69 44 55 11 86 
46 30 48 84 47 74 3 77 76 25 
62 53 16 5 60 15 89 9 63 33 
27 18 54 49 41 13 28 26 1 14 
50 85 20 24 80 8 17 61 23 21 
10 67 71 37 51 66 22 83 72 42 
45 81 87 32 12 31 58 56 73 65 
